(declare-fun tobool.not.i.i_23_47 () (_ BitVec 1))
(declare-fun or.cond81.i_23_56 () (_ BitVec 1))
(declare-fun cmp125.not.i_23_88 () (_ BitVec 1))
(declare-fun cmp.i.i.i1072.i_23_179 () (_ BitVec 1))
(declare-fun cmp.i1.i.i.i_23_182 () (_ BitVec 1))
(declare-fun if.then.i.i1075.i_zext_32_to_64.exit.i_23_223 () Bool)
(declare-fun if.else.i.i1076.i_zext_32_to_64.exit.i_23_222 () Bool)
(declare-fun dst_reg_23_203 () (_ BitVec 8))
(declare-fun dst_reg_23_148 () (_ BitVec 8))
(declare-fun dst_reg_23_202 () (_ BitVec 32))
(declare-fun dst_reg_23_147 () (_ BitVec 32))
(declare-fun dst_reg_23_201 () (_ BitVec 32))
(declare-fun dst_reg_23_146 () (_ BitVec 32))
(declare-fun dst_reg_23_200 () (_ BitVec 32))
(declare-fun dst_reg_23_145 () (_ BitVec 32))
(declare-fun dst_reg_23_199 () (_ BitVec 32))
(declare-fun dst_reg_23_144 () (_ BitVec 32))
(declare-fun dst_reg_23_198 () (_ BitVec 32))
(declare-fun dst_reg_23_143 () (_ BitVec 32))
(declare-fun dst_reg_23_197 () (_ BitVec 32))
(declare-fun dst_reg_23_142 () (_ BitVec 32))
(declare-fun dst_reg_23_196 () (_ BitVec 32))
(declare-fun dst_reg_23_141 () (_ BitVec 32))
(declare-fun dst_reg_23_195 () (_ BitVec 64))
(declare-fun conv1.i.i.i_23_176 () (_ BitVec 64))
(declare-fun dst_reg_23_194 () (_ BitVec 64))
(declare-fun conv.i.i1065.i_23_174 () (_ BitVec 64))
(declare-fun dst_reg_23_193 () (_ BitVec 64))
(declare-fun dst_reg_23_138 () (_ BitVec 64))
(declare-fun dst_reg_23_192 () (_ BitVec 64))
(declare-fun dst_reg_23_191 () (_ BitVec 64))
(declare-fun and6.i.i.i1060.i_23_172 () (_ BitVec 64))
(declare-fun dst_reg_23_190 () (_ BitVec 64))
(declare-fun and.i.i.i1059.i_23_170 () (_ BitVec 64))
(declare-fun dst_reg_23_189 () (_ BitVec 32))
(declare-fun dst_reg_23_134 () (_ BitVec 32))
(declare-fun dst_reg_23_188 () (_ BitVec 32))
(declare-fun dst_reg_23_133 () (_ BitVec 32))
(declare-fun dst_reg_23_187 () (_ BitVec 32))
(declare-fun dst_reg_23_132 () (_ BitVec 32))
(declare-fun dst_reg_23_186 () (_ BitVec 32))
(declare-fun dst_reg_23_131 () (_ BitVec 32))
(declare-fun src_reg_23_221 () (_ BitVec 8))
(declare-fun src_reg_23_166 () (_ BitVec 8))
(declare-fun src_reg_23_220 () (_ BitVec 32))
(declare-fun src_reg_23_165 () (_ BitVec 32))
(declare-fun src_reg_23_219 () (_ BitVec 32))
(declare-fun src_reg_23_164 () (_ BitVec 32))
(declare-fun src_reg_23_218 () (_ BitVec 32))
(declare-fun src_reg_23_163 () (_ BitVec 32))
(declare-fun src_reg_23_217 () (_ BitVec 32))
(declare-fun src_reg_23_162 () (_ BitVec 32))
(declare-fun src_reg_23_216 () (_ BitVec 32))
(declare-fun src_reg_23_161 () (_ BitVec 32))
(declare-fun src_reg_23_215 () (_ BitVec 32))
(declare-fun src_reg_23_160 () (_ BitVec 32))
(declare-fun src_reg_23_214 () (_ BitVec 32))
(declare-fun src_reg_23_159 () (_ BitVec 32))
(declare-fun src_reg_23_213 () (_ BitVec 64))
(declare-fun src_reg_23_158 () (_ BitVec 64))
(declare-fun src_reg_23_212 () (_ BitVec 64))
(declare-fun src_reg_23_157 () (_ BitVec 64))
(declare-fun src_reg_23_211 () (_ BitVec 64))
(declare-fun src_reg_23_156 () (_ BitVec 64))
(declare-fun src_reg_23_210 () (_ BitVec 64))
(declare-fun src_reg_23_155 () (_ BitVec 64))
(declare-fun src_reg_23_209 () (_ BitVec 64))
(declare-fun src_reg_23_154 () (_ BitVec 64))
(declare-fun src_reg_23_208 () (_ BitVec 64))
(declare-fun src_reg_23_153 () (_ BitVec 64))
(declare-fun src_reg_23_207 () (_ BitVec 32))
(declare-fun src_reg_23_152 () (_ BitVec 32))
(declare-fun src_reg_23_206 () (_ BitVec 32))
(declare-fun src_reg_23_151 () (_ BitVec 32))
(declare-fun src_reg_23_205 () (_ BitVec 32))
(declare-fun src_reg_23_150 () (_ BitVec 32))
(declare-fun src_reg_23_204 () (_ BitVec 32))
(declare-fun src_reg_23_149 () (_ BitVec 32))
(declare-fun conv6.i.i.i_23_183 () (_ BitVec 64))
(declare-fun conv8.i.i.i_23_184 () (_ BitVec 64))
(declare-fun .sink.i.i1077.i_23_224 () (_ BitVec 64))
(declare-fun dst_reg_23_17 () (_ BitVec 8))
(declare-fun dst_reg_23_16 () (_ BitVec 32))
(declare-fun dst_reg_23_15 () (_ BitVec 32))
(declare-fun dst_reg_23_14 () (_ BitVec 32))
(declare-fun dst_reg_23_140 () (_ BitVec 64))
(declare-fun dst_reg_23_139 () (_ BitVec 64))
(declare-fun dst_reg_23_137 () (_ BitVec 64))
(declare-fun dst_reg_23_136 () (_ BitVec 64))
(declare-fun dst_reg_23_135 () (_ BitVec 64))
(declare-fun dst_reg_23_3 () (_ BitVec 32))
(declare-fun dst_reg_23_2 () (_ BitVec 32))
(declare-fun dst_reg_23_1 () (_ BitVec 32))
(declare-fun src_reg_23_35 () (_ BitVec 8))
(declare-fun src_reg_23_34 () (_ BitVec 32))
(declare-fun src_reg_23_33 () (_ BitVec 32))
(declare-fun src_reg_23_32 () (_ BitVec 32))
(declare-fun src_reg_23_31 () (_ BitVec 32))
(declare-fun src_reg_23_30 () (_ BitVec 32))
(declare-fun src_reg_23_29 () (_ BitVec 32))
(declare-fun src_reg_23_28 () (_ BitVec 32))
(declare-fun src_reg_23_27 () (_ BitVec 64))
(declare-fun src_reg_23_26 () (_ BitVec 64))
(declare-fun src_reg_23_25 () (_ BitVec 64))
(declare-fun src_reg_23_24 () (_ BitVec 64))
(declare-fun src_reg_23_23 () (_ BitVec 64))
(declare-fun src_reg_23_22 () (_ BitVec 64))
(declare-fun src_reg_23_21 () (_ BitVec 32))
(declare-fun src_reg_23_20 () (_ BitVec 32))
(declare-fun src_reg_23_19 () (_ BitVec 32))
(declare-fun and.i.i.i.i940.i3334_23_130 () (_ BitVec 32))
(declare-fun shr.i.i927.i_23_109 () (_ BitVec 32))
(declare-fun cond14.i.i956.i_23_129 () (_ BitVec 32))
(declare-fun cond.i.i950.i_23_124 () (_ BitVec 32))
(declare-fun conv10.i.i.i_23_113 () (_ BitVec 64))
(declare-fun conv5.i.i.i_23_110 () (_ BitVec 64))
(declare-fun i13.i.i1071.i_23_177 () (_ BitVec 32))
(declare-fun i12.i.i1068.i_23_175 () (_ BitVec 32))
(declare-fun i.i.i1064.i_23_173 () (_ BitVec 32))
(declare-fun i6.i1058.i_23_168 () (_ BitVec 64))
(declare-fun i4.i.i_23_167 () (_ BitVec 64))
(declare-fun shr9.i.i.i_23_112 () (_ BitVec 32))
(declare-fun or6.i.i954.i_23_127 () (_ BitVec 32))
(declare-fun shr3.i.i_23_103 () (_ BitVec 32))
(declare-fun cmp9.i.i955.i_23_128 () (_ BitVec 1))
(declare-fun and5.i.i953.i_23_126 () (_ BitVec 32))
(declare-fun or.i.i947.i_23_122 () (_ BitVec 32))
(declare-fun shr.i916.i_23_101 () (_ BitVec 32))
(declare-fun cmp.i.i949.i_23_123 () (_ BitVec 1))
(declare-fun and.i.i946.i_23_121 () (_ BitVec 32))
(declare-fun conv4.i.i.i_23_108 () (_ BitVec 32))
(declare-fun conv7.i.i928.i_23_111 () (_ BitVec 32))
(declare-fun i18.i922.i_23_105 () (_ BitVec 64))
(declare-fun conv3.i.i.i_23_106 () (_ BitVec 32))
(declare-fun src_reg1.sroa.62.0.copyload_23_41 () (_ BitVec 32))
(declare-fun i16.i920.i_23_104 () (_ BitVec 64))
(declare-fun dst_reg_23_5 () (_ BitVec 64))
(declare-fun dst_reg_23_4 () (_ BitVec 64))
(declare-fun i14.i918.i_23_102 () (_ BitVec 32))
(declare-fun dst_reg_23_11 () (_ BitVec 32))
(declare-fun i13.i915.i_23_100 () (_ BitVec 32))
(declare-fun dst_reg_23_10 () (_ BitVec 32))
(declare-fun cmp24.old.i_23_58 () (_ BitVec 1))
(declare-fun or.cond82.i_23_60 () (_ BitVec 1))
(declare-fun cmp21.old.i_23_57 () (_ BitVec 1))
(declare-fun src_reg1.sroa.70.0.copyload_23_42 () (_ BitVec 32))
(declare-fun src_reg1.sroa.59.0.copyload_23_40 () (_ BitVec 32))
(declare-fun src_reg1.sroa.52.0.copyload_23_39 () (_ BitVec 32))
(declare-fun i14.i.i.i_23_180 () (_ BitVec 32))
(declare-fun and6.i.i.i.i_23_45 () (_ BitVec 64))
(declare-fun src_reg1.sroa.13.0.copyload_23_43 () (_ BitVec 64))
(declare-fun src_reg1.sroa.45.0.copyload_23_38 () (_ BitVec 64))
(declare-fun src_reg_23_18 () (_ BitVec 32))
(declare-fun dst_reg_23_13 () (_ BitVec 32))
(declare-fun dst_reg_23_12 () (_ BitVec 32))
(declare-fun dst_reg_23_9 () (_ BitVec 64))
(declare-fun dst_reg_23_8 () (_ BitVec 64))
(declare-fun dst_reg_23_7 () (_ BitVec 64))
(declare-fun dst_reg_23_6 () (_ BitVec 64))
(declare-fun dst_reg_23_0 () (_ BitVec 32))
(declare-fun cmp24.i_23_54 () (_ BitVec 1))
(declare-fun or.cond80.i_23_53 () (_ BitVec 1))
(declare-fun or.cond79.i_23_51 () (_ BitVec 1))
(declare-fun cmp21.i_23_52 () (_ BitVec 1))
(declare-fun cmp18.not.i_23_49 () (_ BitVec 1))
(declare-fun cmp16.not.i_23_48 () (_ BitVec 1))
(declare-fun src_reg_23_297 () (_ BitVec 8))
(declare-fun src_reg_23_261 () (_ BitVec 8))
(declare-fun src_reg_23_296 () (_ BitVec 32))
(declare-fun src_reg_23_260 () (_ BitVec 32))
(declare-fun src_reg_23_295 () (_ BitVec 32))
(declare-fun src_reg_23_259 () (_ BitVec 32))
(declare-fun src_reg_23_294 () (_ BitVec 32))
(declare-fun src_reg_23_258 () (_ BitVec 32))
(declare-fun src_reg_23_293 () (_ BitVec 32))
(declare-fun src_reg_23_257 () (_ BitVec 32))
(declare-fun src_reg_23_292 () (_ BitVec 32))
(declare-fun src_reg_23_256 () (_ BitVec 32))
(declare-fun src_reg_23_291 () (_ BitVec 32))
(declare-fun src_reg_23_255 () (_ BitVec 32))
(declare-fun src_reg_23_290 () (_ BitVec 32))
(declare-fun src_reg_23_254 () (_ BitVec 32))
(declare-fun src_reg_23_289 () (_ BitVec 64))
(declare-fun src_reg_23_253 () (_ BitVec 64))
(declare-fun src_reg_23_288 () (_ BitVec 64))
(declare-fun src_reg_23_252 () (_ BitVec 64))
(declare-fun src_reg_23_287 () (_ BitVec 64))
(declare-fun src_reg_23_251 () (_ BitVec 64))
(declare-fun src_reg_23_286 () (_ BitVec 64))
(declare-fun src_reg_23_250 () (_ BitVec 64))
(declare-fun src_reg_23_285 () (_ BitVec 64))
(declare-fun src_reg_23_249 () (_ BitVec 64))
(declare-fun src_reg_23_284 () (_ BitVec 64))
(declare-fun src_reg_23_248 () (_ BitVec 64))
(declare-fun src_reg_23_283 () (_ BitVec 32))
(declare-fun src_reg_23_247 () (_ BitVec 32))
(declare-fun src_reg_23_282 () (_ BitVec 32))
(declare-fun src_reg_23_246 () (_ BitVec 32))
(declare-fun src_reg_23_281 () (_ BitVec 32))
(declare-fun src_reg_23_245 () (_ BitVec 32))
(declare-fun src_reg_23_280 () (_ BitVec 32))
(declare-fun src_reg_23_244 () (_ BitVec 32))
(declare-fun dst_reg_23_279 () (_ BitVec 8))
(declare-fun dst_reg_23_243 () (_ BitVec 8))
(declare-fun dst_reg_23_278 () (_ BitVec 32))
(declare-fun dst_reg_23_242 () (_ BitVec 32))
(declare-fun dst_reg_23_277 () (_ BitVec 32))
(declare-fun dst_reg_23_241 () (_ BitVec 32))
(declare-fun dst_reg_23_276 () (_ BitVec 32))
(declare-fun dst_reg_23_240 () (_ BitVec 32))
(declare-fun dst_reg_23_275 () (_ BitVec 32))
(declare-fun dst_reg_23_239 () (_ BitVec 32))
(declare-fun dst_reg_23_274 () (_ BitVec 32))
(declare-fun dst_reg_23_238 () (_ BitVec 32))
(declare-fun dst_reg_23_273 () (_ BitVec 32))
(declare-fun dst_reg_23_237 () (_ BitVec 32))
(declare-fun dst_reg_23_272 () (_ BitVec 32))
(declare-fun dst_reg_23_236 () (_ BitVec 32))
(declare-fun dst_reg_23_271 () (_ BitVec 64))
(declare-fun dst_reg_23_235 () (_ BitVec 64))
(declare-fun dst_reg_23_270 () (_ BitVec 64))
(declare-fun dst_reg_23_234 () (_ BitVec 64))
(declare-fun dst_reg_23_269 () (_ BitVec 64))
(declare-fun dst_reg_23_233 () (_ BitVec 64))
(declare-fun dst_reg_23_268 () (_ BitVec 64))
(declare-fun dst_reg_23_232 () (_ BitVec 64))
(declare-fun dst_reg_23_267 () (_ BitVec 64))
(declare-fun dst_reg_23_231 () (_ BitVec 64))
(declare-fun dst_reg_23_266 () (_ BitVec 64))
(declare-fun dst_reg_23_230 () (_ BitVec 64))
(declare-fun dst_reg_23_265 () (_ BitVec 32))
(declare-fun dst_reg_23_229 () (_ BitVec 32))
(declare-fun dst_reg_23_264 () (_ BitVec 32))
(declare-fun dst_reg_23_228 () (_ BitVec 32))
(declare-fun dst_reg_23_263 () (_ BitVec 32))
(declare-fun dst_reg_23_227 () (_ BitVec 32))
(declare-fun dst_reg_23_262 () (_ BitVec 32))
(declare-fun dst_reg_23_226 () (_ BitVec 32))
(assert (let ((a!1 (and (= cmp125.not.i_23_88 #b1)
                (and (= or.cond81.i_23_56 #b0) (= tobool.not.i.i_23_47 #b1))))
      (a!2 (and (= cmp125.not.i_23_88 #b0)
                (and (= or.cond81.i_23_56 #b0) (= tobool.not.i.i_23_47 #b1))))
      (a!5 (or (and (= or.cond82.i_23_60 #b1) (= tobool.not.i.i_23_47 #b0))
               (and (= or.cond81.i_23_56 #b1) (= tobool.not.i.i_23_47 #b1))))
      (a!6 (and (= #x00000001 src_reg_23_244)
                (= src_reg_23_19 src_reg_23_245)
                (= src_reg_23_20 src_reg_23_246)
                (= src_reg_23_21 src_reg_23_247)
                (= src_reg_23_22 src_reg_23_248)
                (= src_reg_23_23 src_reg_23_249)
                (= src_reg_23_24 src_reg_23_250)
                (= src_reg_23_25 src_reg_23_251)
                (= src_reg_23_26 src_reg_23_252)
                (= src_reg_23_27 src_reg_23_253)
                (= src_reg_23_28 src_reg_23_254)
                (= src_reg_23_29 src_reg_23_255)
                (= src_reg_23_30 src_reg_23_256)
                (= src_reg_23_31 src_reg_23_257)
                (= src_reg_23_32 src_reg_23_258)
                (= src_reg_23_33 src_reg_23_259)
                (= src_reg_23_34 src_reg_23_260)
                (= src_reg_23_35 src_reg_23_261)
                (= #x00000001 dst_reg_23_226)
                (= dst_reg_23_1 dst_reg_23_227)
                (= dst_reg_23_2 dst_reg_23_228)
                (= dst_reg_23_3 dst_reg_23_229)
                (= #x0000000000000000 dst_reg_23_230)
                (= #xffffffffffffffff dst_reg_23_231)
                (= #x8000000000000000 dst_reg_23_232)
                (= #x7fffffffffffffff dst_reg_23_233)
                (= #x0000000000000000 dst_reg_23_234)
                (= #xffffffffffffffff dst_reg_23_235)
                (= #x80000000 dst_reg_23_236)
                (= #x7fffffff dst_reg_23_237)
                (= #x00000000 dst_reg_23_238)
                (= #xffffffff dst_reg_23_239)
                (= #x00000000 dst_reg_23_240)
                (= dst_reg_23_15 dst_reg_23_241)
                (= dst_reg_23_16 dst_reg_23_242)
                (= #x01 dst_reg_23_243)))
      (a!10 (=> (= tobool.not.i.i_23_47 #b1)
                (and (ite (distinct src_reg1.sroa.52.0.copyload_23_39
                                    src_reg1.sroa.59.0.copyload_23_40)
                          (= cmp16.not.i_23_48 #b1)
                          (= cmp16.not.i_23_48 #b0))
                     (ite (distinct src_reg1.sroa.62.0.copyload_23_41
                                    src_reg1.sroa.70.0.copyload_23_42)
                          (= cmp18.not.i_23_49 #b1)
                          (= cmp18.not.i_23_49 #b0))
                     (ite (= cmp16.not.i_23_48 #b1)
                          (= or.cond79.i_23_51 #b1)
                          (= or.cond79.i_23_51 cmp18.not.i_23_49))
                     (ite (bvsgt src_reg1.sroa.52.0.copyload_23_39
                                 src_reg1.sroa.59.0.copyload_23_40)
                          (= cmp21.i_23_52 #b1)
                          (= cmp21.i_23_52 #b0))
                     (= or.cond80.i_23_53
                        (bvor cmp21.i_23_52 or.cond79.i_23_51))
                     (ite (bvugt src_reg1.sroa.62.0.copyload_23_41
                                 src_reg1.sroa.70.0.copyload_23_42)
                          (= cmp24.i_23_54 #b1)
                          (= cmp24.i_23_54 #b0))
                     (ite (= or.cond80.i_23_53 #b1)
                          (= or.cond81.i_23_56 #b1)
                          (= or.cond81.i_23_56 cmp24.i_23_54)))))
      (a!11 (=> (and (= or.cond81.i_23_56 #b0) (= tobool.not.i.i_23_47 #b1))
                (and (ite (bvult src_reg1.sroa.45.0.copyload_23_38
                                 #x0000000000000020)
                          (= cmp125.not.i_23_88 #b1)
                          (= cmp125.not.i_23_88 #b0)))))
      (a!13 (=> (= tobool.not.i.i_23_47 #b0)
                (and (ite (bvsgt src_reg1.sroa.52.0.copyload_23_39
                                 src_reg1.sroa.59.0.copyload_23_40)
                          (= cmp21.old.i_23_57 #b1)
                          (= cmp21.old.i_23_57 #b0))
                     (ite (bvugt src_reg1.sroa.62.0.copyload_23_41
                                 src_reg1.sroa.70.0.copyload_23_42)
                          (= cmp24.old.i_23_58 #b1)
                          (= cmp24.old.i_23_58 #b0))
                     (ite (= cmp21.old.i_23_57 #b1)
                          (= or.cond82.i_23_60 #b1)
                          (= or.cond82.i_23_60 cmp24.old.i_23_58))))))
(let ((a!3 (or (and (= cmp.i1.i.i.i_23_182 #b0)
                    (and (= cmp.i.i.i1072.i_23_179 #b1) (or a!1 a!2)))
               (and (= cmp.i.i.i1072.i_23_179 #b0) (or a!1 a!2))))
      (a!4 (and (= cmp.i1.i.i.i_23_182 #b1)
                (and (= cmp.i.i.i1072.i_23_179 #b1) (or a!1 a!2))))
      (a!9 (=> (and (= cmp.i.i.i1072.i_23_179 #b1) (or a!1 a!2))
               (and (= dst_reg_23_142 i14.i.i.i_23_180)
                    (ite (bvsgt i14.i.i.i_23_180 #xffffffff)
                         (= cmp.i1.i.i.i_23_182 #b1)
                         (= cmp.i1.i.i.i_23_182 #b0)))))
      (a!14 (=> a!1
                (and (= dst_reg_23_10 i13.i915.i_23_100)
                     (= shr.i916.i_23_101
                        (bvashr i13.i915.i_23_100
                                src_reg1.sroa.62.0.copyload_23_41))
                     (= dst_reg_23_11 i14.i918.i_23_102)
                     (= shr3.i.i_23_103
                        (bvashr i14.i918.i_23_102
                                src_reg1.sroa.62.0.copyload_23_41))
                     (= dst_reg_23_4 i16.i920.i_23_104)
                     (= dst_reg_23_5 i18.i922.i_23_105)
                     (= conv3.i.i.i_23_106 ((_ extract 31 0) i16.i920.i_23_104))
                     (= conv4.i.i.i_23_108
                        (bvand src_reg1.sroa.62.0.copyload_23_41 #x000000ff))
                     (= shr.i.i927.i_23_109
                        (bvashr conv3.i.i.i_23_106 conv4.i.i.i_23_108))
                     (= conv5.i.i.i_23_110
                        ((_ zero_extend 32) shr.i.i927.i_23_109))
                     (= conv7.i.i928.i_23_111
                        ((_ extract 31 0) i18.i922.i_23_105))
                     (= shr9.i.i.i_23_112
                        (bvashr conv7.i.i928.i_23_111 conv4.i.i.i_23_108))
                     (= conv10.i.i.i_23_113
                        ((_ zero_extend 32) shr9.i.i.i_23_112))
                     (= and.i.i946.i_23_121
                        (bvand shr9.i.i.i_23_112 #x80000000))
                     (= or.i.i947.i_23_122
                        (bvor and.i.i946.i_23_121 shr.i.i927.i_23_109))
                     (ite (bvsgt shr.i916.i_23_101 or.i.i947.i_23_122)
                          (= cmp.i.i949.i_23_123 #b1)
                          (= cmp.i.i949.i_23_123 #b0))
                     (ite (= cmp.i.i949.i_23_123 #b1)
                          (= cond.i.i950.i_23_124 shr.i916.i_23_101)
                          (= cond.i.i950.i_23_124 or.i.i947.i_23_122))
                     (= and5.i.i953.i_23_126
                        (bvand shr9.i.i.i_23_112 #x7fffffff))
                     (= or6.i.i954.i_23_127
                        (bvor and5.i.i953.i_23_126 shr.i.i927.i_23_109))
                     (ite (bvslt shr3.i.i_23_103 or6.i.i954.i_23_127)
                          (= cmp9.i.i955.i_23_128 #b1)
                          (= cmp9.i.i955.i_23_128 #b0))
                     (ite (= cmp9.i.i955.i_23_128 #b1)
                          (= cond14.i.i956.i_23_129 shr3.i.i_23_103)
                          (= cond14.i.i956.i_23_129 or6.i.i954.i_23_127))
                     (= and.i.i.i.i940.i3334_23_130
                        (bvor shr9.i.i.i_23_112 shr.i.i927.i_23_109)))))
      (a!15 (and (= dst_reg_23_135 i4.i.i_23_167)
                 (= dst_reg_23_136 i6.i1058.i_23_168)
                 (= and.i.i.i1059.i_23_170
                    (bvand i4.i.i_23_167 #x00000000ffffffff))
                 (= and6.i.i.i1060.i_23_172
                    (bvand i6.i1058.i_23_168 #x00000000ffffffff))
                 (= dst_reg_23_143 i.i.i1064.i_23_173)
                 (= conv.i.i1065.i_23_174
                    ((_ zero_extend 32) i.i.i1064.i_23_173))
                 (= dst_reg_23_144 i12.i.i1068.i_23_175)
                 (= conv1.i.i.i_23_176
                    ((_ zero_extend 32) i12.i.i1068.i_23_175))
                 (= dst_reg_23_141 i13.i.i1071.i_23_177)
                 (ite (bvsgt i13.i.i1071.i_23_177 #xffffffff)
                      (= cmp.i.i.i1072.i_23_179 #b1)
                      (= cmp.i.i.i1072.i_23_179 #b0))
                 (=> a!1
                     (and (= #x00000001 src_reg_23_149)
                          (= src_reg_23_19 src_reg_23_150)
                          (= src_reg_23_20 src_reg_23_151)
                          (= src_reg_23_21 src_reg_23_152)
                          (= src_reg_23_22 src_reg_23_153)
                          (= src_reg_23_23 src_reg_23_154)
                          (= src_reg_23_24 src_reg_23_155)
                          (= src_reg_23_25 src_reg_23_156)
                          (= src_reg_23_26 src_reg_23_157)
                          (= src_reg_23_27 src_reg_23_158)
                          (= src_reg_23_28 src_reg_23_159)
                          (= src_reg_23_29 src_reg_23_160)
                          (= src_reg_23_30 src_reg_23_161)
                          (= src_reg_23_31 src_reg_23_162)
                          (= src_reg_23_32 src_reg_23_163)
                          (= src_reg_23_33 src_reg_23_164)
                          (= src_reg_23_34 src_reg_23_165)
                          (= src_reg_23_35 src_reg_23_166)
                          (= #x00000001 dst_reg_23_131)
                          (= dst_reg_23_1 dst_reg_23_132)
                          (= dst_reg_23_2 dst_reg_23_133)
                          (= dst_reg_23_3 dst_reg_23_134)
                          (= conv5.i.i.i_23_110 dst_reg_23_135)
                          (= conv10.i.i.i_23_113 dst_reg_23_136)
                          (= #x8000000000000000 dst_reg_23_137)
                          (= #x7fffffffffffffff dst_reg_23_138)
                          (= #x0000000000000000 dst_reg_23_139)
                          (= #xffffffffffffffff dst_reg_23_140)
                          (= cond.i.i950.i_23_124 dst_reg_23_141)
                          (= cond14.i.i956.i_23_129 dst_reg_23_142)
                          (= shr.i.i927.i_23_109 dst_reg_23_143)
                          (= and.i.i.i.i940.i3334_23_130 dst_reg_23_144)
                          (= dst_reg_23_14 dst_reg_23_145)
                          (= dst_reg_23_15 dst_reg_23_146)
                          (= dst_reg_23_16 dst_reg_23_147)
                          (= dst_reg_23_17 dst_reg_23_148)))
                 (=> a!2
                     (and (= #x00000001 src_reg_23_149)
                          (= src_reg_23_19 src_reg_23_150)
                          (= src_reg_23_20 src_reg_23_151)
                          (= src_reg_23_21 src_reg_23_152)
                          (= src_reg_23_22 src_reg_23_153)
                          (= src_reg_23_23 src_reg_23_154)
                          (= src_reg_23_24 src_reg_23_155)
                          (= src_reg_23_25 src_reg_23_156)
                          (= src_reg_23_26 src_reg_23_157)
                          (= src_reg_23_27 src_reg_23_158)
                          (= src_reg_23_28 src_reg_23_159)
                          (= src_reg_23_29 src_reg_23_160)
                          (= src_reg_23_30 src_reg_23_161)
                          (= src_reg_23_31 src_reg_23_162)
                          (= src_reg_23_32 src_reg_23_163)
                          (= src_reg_23_33 src_reg_23_164)
                          (= src_reg_23_34 src_reg_23_165)
                          (= src_reg_23_35 src_reg_23_166)
                          (= #x00000001 dst_reg_23_131)
                          (= dst_reg_23_1 dst_reg_23_132)
                          (= dst_reg_23_2 dst_reg_23_133)
                          (= dst_reg_23_3 dst_reg_23_134)
                          (= #x0000000000000000 dst_reg_23_135)
                          (= #xffffffffffffffff dst_reg_23_136)
                          (= #x8000000000000000 dst_reg_23_137)
                          (= #x7fffffffffffffff dst_reg_23_138)
                          (= #x0000000000000000 dst_reg_23_139)
                          (= #xffffffffffffffff dst_reg_23_140)
                          (= #x80000000 dst_reg_23_141)
                          (= #x7fffffff dst_reg_23_142)
                          (= #x00000000 dst_reg_23_143)
                          (= #xffffffff dst_reg_23_144)
                          (= dst_reg_23_14 dst_reg_23_145)
                          (= dst_reg_23_15 dst_reg_23_146)
                          (= dst_reg_23_16 dst_reg_23_147)
                          (= dst_reg_23_17 dst_reg_23_148))))))
(let ((a!7 (and (=> (or a!3 a!4)
                    (and (= src_reg_23_204 src_reg_23_244)
                         (= src_reg_23_205 src_reg_23_245)
                         (= src_reg_23_206 src_reg_23_246)
                         (= src_reg_23_207 src_reg_23_247)
                         (= src_reg_23_208 src_reg_23_248)
                         (= src_reg_23_209 src_reg_23_249)
                         (= src_reg_23_210 src_reg_23_250)
                         (= src_reg_23_211 src_reg_23_251)
                         (= src_reg_23_212 src_reg_23_252)
                         (= src_reg_23_213 src_reg_23_253)
                         (= src_reg_23_214 src_reg_23_254)
                         (= src_reg_23_215 src_reg_23_255)
                         (= src_reg_23_216 src_reg_23_256)
                         (= src_reg_23_217 src_reg_23_257)
                         (= src_reg_23_218 src_reg_23_258)
                         (= src_reg_23_219 src_reg_23_259)
                         (= src_reg_23_220 src_reg_23_260)
                         (= src_reg_23_221 src_reg_23_261)
                         (= dst_reg_23_186 dst_reg_23_226)
                         (= dst_reg_23_187 dst_reg_23_227)
                         (= dst_reg_23_188 dst_reg_23_228)
                         (= dst_reg_23_189 dst_reg_23_229)
                         (= dst_reg_23_190 dst_reg_23_230)
                         (= dst_reg_23_191 dst_reg_23_231)
                         (= dst_reg_23_192 dst_reg_23_232)
                         (= .sink.i.i1077.i_23_224 dst_reg_23_233)
                         (= dst_reg_23_194 dst_reg_23_234)
                         (= dst_reg_23_195 dst_reg_23_235)
                         (= dst_reg_23_196 dst_reg_23_236)
                         (= dst_reg_23_197 dst_reg_23_237)
                         (= dst_reg_23_198 dst_reg_23_238)
                         (= dst_reg_23_199 dst_reg_23_239)
                         (= dst_reg_23_200 dst_reg_23_240)
                         (= dst_reg_23_201 dst_reg_23_241)
                         (= dst_reg_23_202 dst_reg_23_242)
                         (= dst_reg_23_203 dst_reg_23_243)))
                (=> a!5 a!6)
                (=> (and (= or.cond82.i_23_60 #b0) (= tobool.not.i.i_23_47 #b0))
                    a!6)
                (= dst_reg_23_226 dst_reg_23_262)
                (= dst_reg_23_227 dst_reg_23_263)
                (= dst_reg_23_228 dst_reg_23_264)
                (= dst_reg_23_229 dst_reg_23_265)
                (= dst_reg_23_230 dst_reg_23_266)
                (= dst_reg_23_231 dst_reg_23_267)
                (= dst_reg_23_232 dst_reg_23_268)
                (= dst_reg_23_233 dst_reg_23_269)
                (= dst_reg_23_234 dst_reg_23_270)
                (= dst_reg_23_235 dst_reg_23_271)
                (= dst_reg_23_236 dst_reg_23_272)
                (= dst_reg_23_237 dst_reg_23_273)
                (= dst_reg_23_238 dst_reg_23_274)
                (= dst_reg_23_239 dst_reg_23_275)
                (= dst_reg_23_240 dst_reg_23_276)
                (= dst_reg_23_241 dst_reg_23_277)
                (= dst_reg_23_242 dst_reg_23_278)
                (= dst_reg_23_243 dst_reg_23_279)
                (= src_reg_23_244 src_reg_23_280)
                (= src_reg_23_245 src_reg_23_281)
                (= src_reg_23_246 src_reg_23_282)
                (= src_reg_23_247 src_reg_23_283)
                (= src_reg_23_248 src_reg_23_284)
                (= src_reg_23_249 src_reg_23_285)
                (= src_reg_23_250 src_reg_23_286)
                (= src_reg_23_251 src_reg_23_287)
                (= src_reg_23_252 src_reg_23_288)
                (= src_reg_23_253 src_reg_23_289)
                (= src_reg_23_254 src_reg_23_290)
                (= src_reg_23_255 src_reg_23_291)
                (= src_reg_23_256 src_reg_23_292)
                (= src_reg_23_257 src_reg_23_293)
                (= src_reg_23_258 src_reg_23_294)
                (= src_reg_23_259 src_reg_23_295)
                (= src_reg_23_260 src_reg_23_296)
                (= src_reg_23_261 src_reg_23_297)))
      (a!12 (=> a!4
                (and (= conv6.i.i.i_23_183
                        ((_ sign_extend 32) i13.i.i1071.i_23_177))
                     (= conv8.i.i.i_23_184
                        ((_ sign_extend 32) i14.i.i.i_23_180)))))
      (a!16 (and (=> if.else.i.i1076.i_zext_32_to_64.exit.i_23_222
                     (= .sink.i.i1077.i_23_224 #x00000000ffffffff))
                 (=> if.then.i.i1075.i_zext_32_to_64.exit.i_23_223
                     (= .sink.i.i1077.i_23_224 conv8.i.i.i_23_184))
                 (=> a!4
                     (and (= src_reg_23_149 src_reg_23_204)
                          (= src_reg_23_150 src_reg_23_205)
                          (= src_reg_23_151 src_reg_23_206)
                          (= src_reg_23_152 src_reg_23_207)
                          (= src_reg_23_153 src_reg_23_208)
                          (= src_reg_23_154 src_reg_23_209)
                          (= src_reg_23_155 src_reg_23_210)
                          (= src_reg_23_156 src_reg_23_211)
                          (= src_reg_23_157 src_reg_23_212)
                          (= src_reg_23_158 src_reg_23_213)
                          (= src_reg_23_159 src_reg_23_214)
                          (= src_reg_23_160 src_reg_23_215)
                          (= src_reg_23_161 src_reg_23_216)
                          (= src_reg_23_162 src_reg_23_217)
                          (= src_reg_23_163 src_reg_23_218)
                          (= src_reg_23_164 src_reg_23_219)
                          (= src_reg_23_165 src_reg_23_220)
                          (= src_reg_23_166 src_reg_23_221)
                          (= dst_reg_23_131 dst_reg_23_186)
                          (= dst_reg_23_132 dst_reg_23_187)
                          (= dst_reg_23_133 dst_reg_23_188)
                          (= dst_reg_23_134 dst_reg_23_189)
                          (= and.i.i.i1059.i_23_170 dst_reg_23_190)
                          (= and6.i.i.i1060.i_23_172 dst_reg_23_191)
                          (= conv6.i.i.i_23_183 dst_reg_23_192)
                          (= dst_reg_23_138 dst_reg_23_193)
                          (= conv.i.i1065.i_23_174 dst_reg_23_194)
                          (= conv1.i.i.i_23_176 dst_reg_23_195)
                          (= dst_reg_23_141 dst_reg_23_196)
                          (= dst_reg_23_142 dst_reg_23_197)
                          (= dst_reg_23_143 dst_reg_23_198)
                          (= dst_reg_23_144 dst_reg_23_199)
                          (= dst_reg_23_145 dst_reg_23_200)
                          (= dst_reg_23_146 dst_reg_23_201)
                          (= dst_reg_23_147 dst_reg_23_202)
                          (= dst_reg_23_148 dst_reg_23_203)))
                 (=> a!3
                     (and (= src_reg_23_149 src_reg_23_204)
                          (= src_reg_23_150 src_reg_23_205)
                          (= src_reg_23_151 src_reg_23_206)
                          (= src_reg_23_152 src_reg_23_207)
                          (= src_reg_23_153 src_reg_23_208)
                          (= src_reg_23_154 src_reg_23_209)
                          (= src_reg_23_155 src_reg_23_210)
                          (= src_reg_23_156 src_reg_23_211)
                          (= src_reg_23_157 src_reg_23_212)
                          (= src_reg_23_158 src_reg_23_213)
                          (= src_reg_23_159 src_reg_23_214)
                          (= src_reg_23_160 src_reg_23_215)
                          (= src_reg_23_161 src_reg_23_216)
                          (= src_reg_23_162 src_reg_23_217)
                          (= src_reg_23_163 src_reg_23_218)
                          (= src_reg_23_164 src_reg_23_219)
                          (= src_reg_23_165 src_reg_23_220)
                          (= src_reg_23_166 src_reg_23_221)
                          (= dst_reg_23_131 dst_reg_23_186)
                          (= dst_reg_23_132 dst_reg_23_187)
                          (= dst_reg_23_133 dst_reg_23_188)
                          (= dst_reg_23_134 dst_reg_23_189)
                          (= and.i.i.i1059.i_23_170 dst_reg_23_190)
                          (= and6.i.i.i1060.i_23_172 dst_reg_23_191)
                          (= #x0000000000000000 dst_reg_23_192)
                          (= dst_reg_23_138 dst_reg_23_193)
                          (= conv.i.i1065.i_23_174 dst_reg_23_194)
                          (= conv1.i.i.i_23_176 dst_reg_23_195)
                          (= dst_reg_23_141 dst_reg_23_196)
                          (= dst_reg_23_142 dst_reg_23_197)
                          (= dst_reg_23_143 dst_reg_23_198)
                          (= dst_reg_23_144 dst_reg_23_199)
                          (= dst_reg_23_145 dst_reg_23_200)
                          (= dst_reg_23_146 dst_reg_23_201)
                          (= dst_reg_23_147 dst_reg_23_202)
                          (= dst_reg_23_148 dst_reg_23_203)))
                 (= if.else.i.i1076.i_zext_32_to_64.exit.i_23_222 a!3)
                 (= if.then.i.i1075.i_zext_32_to_64.exit.i_23_223 a!4))))
(let ((a!8 (=> (or (or a!3 a!4)
                   (and (= or.cond82.i_23_60 #b0) (= tobool.not.i.i_23_47 #b0))
                   a!5)
               a!7)))
  (and a!8
       a!9
       a!10
       a!11
       (= dst_reg_23_0 dst_reg_23_0)
       (= dst_reg_23_1 dst_reg_23_1)
       (= dst_reg_23_2 dst_reg_23_2)
       (= dst_reg_23_3 dst_reg_23_3)
       (= dst_reg_23_4 dst_reg_23_4)
       (= dst_reg_23_5 dst_reg_23_5)
       (= dst_reg_23_6 dst_reg_23_6)
       (= dst_reg_23_7 dst_reg_23_7)
       (= dst_reg_23_8 dst_reg_23_8)
       (= dst_reg_23_9 dst_reg_23_9)
       (= dst_reg_23_10 dst_reg_23_10)
       (= dst_reg_23_11 dst_reg_23_11)
       (= dst_reg_23_12 dst_reg_23_12)
       (= dst_reg_23_13 dst_reg_23_13)
       (= dst_reg_23_14 dst_reg_23_14)
       (= dst_reg_23_15 dst_reg_23_15)
       (= dst_reg_23_16 dst_reg_23_16)
       (= dst_reg_23_17 dst_reg_23_17)
       (= src_reg_23_18 src_reg_23_18)
       (= src_reg_23_19 src_reg_23_19)
       (= src_reg_23_20 src_reg_23_20)
       (= src_reg_23_21 src_reg_23_21)
       (= src_reg_23_22 src_reg_23_22)
       (= src_reg_23_23 src_reg_23_23)
       (= src_reg_23_24 src_reg_23_24)
       (= src_reg_23_25 src_reg_23_25)
       (= src_reg_23_26 src_reg_23_26)
       (= src_reg_23_27 src_reg_23_27)
       (= src_reg_23_28 src_reg_23_28)
       (= src_reg_23_29 src_reg_23_29)
       (= src_reg_23_30 src_reg_23_30)
       (= src_reg_23_31 src_reg_23_31)
       (= src_reg_23_32 src_reg_23_32)
       (= src_reg_23_33 src_reg_23_33)
       (= src_reg_23_34 src_reg_23_34)
       (= src_reg_23_35 src_reg_23_35)
       (= src_reg_23_27 src_reg1.sroa.45.0.copyload_23_38)
       (= src_reg_23_28 src_reg1.sroa.52.0.copyload_23_39)
       (= src_reg_23_29 src_reg1.sroa.59.0.copyload_23_40)
       (= src_reg_23_30 src_reg1.sroa.62.0.copyload_23_41)
       (= src_reg_23_31 src_reg1.sroa.70.0.copyload_23_42)
       (= src_reg_23_23 src_reg1.sroa.13.0.copyload_23_43)
       (= and6.i.i.i.i_23_45
          (bvand src_reg1.sroa.13.0.copyload_23_43 #x00000000ffffffff))
       (ite (= and6.i.i.i.i_23_45 #x0000000000000000)
            (= tobool.not.i.i_23_47 #b1)
            (= tobool.not.i.i_23_47 #b0))
       a!12
       a!13
       a!14
       (=> (or a!1 a!2) a!15)
       (=> (or a!3 a!4) a!16)))))))

;{"dst_reg":["dst_reg_23_0","dst_reg_23_1",[""],"dst_reg_23_2","dst_reg_23_3",["dst_reg_23_4","dst_reg_23_5"],"dst_reg_23_6","dst_reg_23_7","dst_reg_23_8","dst_reg_23_9","dst_reg_23_10","dst_reg_23_11","dst_reg_23_12","dst_reg_23_13","","","dst_reg_23_14","dst_reg_23_15","dst_reg_23_16"],"src_reg":["src_reg_23_18","src_reg_23_19",[""],"src_reg_23_20","src_reg_23_21",["src_reg_23_22","src_reg_23_23"],"src_reg_23_24","src_reg_23_25","src_reg_23_26","src_reg_23_27","src_reg_23_28","src_reg_23_29","src_reg_23_30","src_reg_23_31","","","src_reg_23_32","src_reg_23_33","src_reg_23_34"]}
;{"dst_reg":["dst_reg_23_262","dst_reg_23_263",[""],"dst_reg_23_264","dst_reg_23_265",["dst_reg_23_266","dst_reg_23_267"],"dst_reg_23_268","dst_reg_23_269","dst_reg_23_270","dst_reg_23_271","dst_reg_23_272","dst_reg_23_273","dst_reg_23_274","dst_reg_23_275","","","dst_reg_23_276","dst_reg_23_277","dst_reg_23_278"],"src_reg":["src_reg_23_280","src_reg_23_281",[""],"src_reg_23_282","src_reg_23_283",["src_reg_23_284","src_reg_23_285"],"src_reg_23_286","src_reg_23_287","src_reg_23_288","src_reg_23_289","src_reg_23_290","src_reg_23_291","src_reg_23_292","src_reg_23_293","","","src_reg_23_294","src_reg_23_295","src_reg_23_296"]}
